8779.0
10,23,32,37,44,53,56,70,109,137,156,159,196,198,211,236,245,249,262,266,269,292,322,373,399,421,426,446,463,469,473,479,493,498,539,568,573,599,603,643,657,658,669,708,732,743,770,775,830,835,845,882,945,989
